horizon = 100000;
numberWorkers = 3;
numberProducts = 6;
numberProductTypes = 4;
numberStations = 5;

releaseTimeW = [0, 0, 0];
workerInitial = [1, 2, 3];
currentStation = [0, 0, 0, 0, 0, 0];
currentStep = [0, 0, 0, 0, 0, 0];
currentBuffer = [4, 2, 0, 0, 0, 0];
releaseTime = [0, 0, 0, 0, 0, 0];
productType = [2, 2, 2, 2, 2, 2];

% workstep duration times as [allVariants][allStations] matrix
productionTimeMatrix = array2d(1..numberProductTypes, 1..numberStations, [100, 100, 100, 100, 100, 100, 500, 500, 100, 50, 50, 50, 50, 50, 500, 100, 500, 100, 780, 500]);
% is automatic flag as a [allVariants][allStations] matrix
numberManualWorksteps = array2d(1..numberProductTypes, 1..numberStations, [1, 1, 1, 1, 1, 1, 1, 1, 1, 1, 1, 1, 1, 1, 1, 1, 1, 1, 2, 1]);
% setup times as a [allVariants][allStations] matrix
setupTimes = array2d(1..numberProductTypes, 1..numberStations, [0, 0, 0, 0, 0, 0, 0, 0, 0, 0, 0, 0, 0, 0, 0, 0, 0, 0, 10, 0]);
% takedown times as a [allVariants][allStations] matrix
takedownTimes = array2d(1..numberProductTypes, 1..numberStations, [0, 0, 0, 0, 0, 0, 0, 0, 0, 0, 0, 0, 0, 0, 0, 0, 0, 0, 10, 0]);
% worker walking times from station to station as a [allStations][allStations] matrix
workerMovementMatrix = array2d(1..numberStations, 1..numberStations, [0, 10, 20, 30, 40, 10, 0, 10, 20, 30, 20, 10, 0, 10, 20, 30, 20, 10, 0, 10, 40, 30, 20, 10, 0]);